NAME PortOpt_n10_m4_inst_0
ROWS
 N  OBJ
 E  budget  
 G  return  
 L  uncertain_risk
 L  fixed_risk
COLUMNS
    asset[0]  budget    1
    asset[0]  return    3.1930063993621451e+00
    asset[1]  budget    1
    asset[1]  return    3.0253576339344681e+00
    asset[2]  budget    1
    asset[2]  return    3.9700357167482530e+00
    asset[3]  budget    1
    asset[3]  return    4.5101093104415053e+00
    asset[4]  budget    1
    asset[4]  return    1.2801892700607751e+00
    asset[5]  budget    1
    asset[5]  return    2.4937843346961768e+00
    asset[6]  budget    1
    asset[6]  return    2.3682083021423659e+00
    asset[7]  budget    1
    asset[7]  return    4.3727160107972809e+00
    asset[8]  budget    1
    asset[8]  return    4.0842084464990247e+00
    asset[9]  budget    1
    asset[9]  return    3.1272392396175706e+00
    return_var  OBJ       -1
    return_var  return    -1
    uncertain_risk_var  OBJ       1
    uncertain_risk_var  uncertain_risk  -1
    fixed_risk_var  OBJ       1
    fixed_risk_var  fixed_risk  -1
RHS
    RHS1      budget    1
BOUNDS
QCMATRIX   uncertain_risk
    asset[0]  asset[0]  5.3628280590138917e-02
    asset[0]  asset[1]  -4.3673332816368537e-02
    asset[1]  asset[0]  -4.3673332816368537e-02
    asset[0]  asset[2]  -3.4320654288850757e-03
    asset[2]  asset[0]  -3.4320654288850757e-03
    asset[0]  asset[3]  -2.7374469420362209e-03
    asset[3]  asset[0]  -2.7374469420362209e-03
    asset[0]  asset[4]  -2.7980472003054559e-02
    asset[4]  asset[0]  -2.7980472003054559e-02
    asset[0]  asset[5]  -3.4830335090325376e-02
    asset[5]  asset[0]  -3.4830335090325376e-02
    asset[0]  asset[6]  4.0970194299738989e-03
    asset[6]  asset[0]  4.0970194299738989e-03
    asset[0]  asset[7]  7.5138261937377267e-03
    asset[7]  asset[0]  7.5138261937377267e-03
    asset[0]  asset[8]  -1.2221454919533376e-02
    asset[8]  asset[0]  -1.2221454919533376e-02
    asset[0]  asset[9]  2.4994226650845882e-02
    asset[9]  asset[0]  2.4994226650845882e-02
    asset[1]  asset[1]  7.6138286408319295e-02
    asset[1]  asset[2]  2.3255918809296838e-02
    asset[2]  asset[1]  2.3255918809296838e-02
    asset[1]  asset[3]  -7.8857832478282791e-03
    asset[3]  asset[1]  -7.8857832478282791e-03
    asset[1]  asset[4]  2.0237372582044173e-02
    asset[4]  asset[1]  2.0237372582044173e-02
    asset[1]  asset[5]  4.9474138811523675e-03
    asset[5]  asset[1]  4.9474138811523675e-03
    asset[1]  asset[6]  5.8773571261509575e-03
    asset[6]  asset[1]  5.8773571261509575e-03
    asset[1]  asset[7]  5.7246829634503109e-03
    asset[7]  asset[1]  5.7246829634503109e-03
    asset[1]  asset[8]  -1.6506770778914957e-02
    asset[8]  asset[1]  -1.6506770778914957e-02
    asset[1]  asset[9]  -1.5892042716132402e-02
    asset[9]  asset[1]  -1.5892042716132402e-02
    asset[2]  asset[2]  1.6718199939015941e-02
    asset[2]  asset[3]  -6.2238877386981955e-03
    asset[3]  asset[2]  -6.2238877386981955e-03
    asset[2]  asset[4]  1.2418053478321727e-04
    asset[4]  asset[2]  1.2418053478321727e-04
    asset[2]  asset[5]  -1.8497589991645455e-02
    asset[5]  asset[2]  -1.8497589991645455e-02
    asset[2]  asset[6]  4.1006024663376751e-03
    asset[6]  asset[2]  4.1006024663376751e-03
    asset[2]  asset[7]  1.6785559938382523e-02
    asset[7]  asset[2]  1.6785559938382523e-02
    asset[2]  asset[8]  -2.0192092772439163e-02
    asset[8]  asset[2]  -2.0192092772439163e-02
    asset[2]  asset[9]  8.2478421449326913e-04
    asset[9]  asset[2]  8.2478421449326913e-04
    asset[3]  asset[3]  3.7833954463333186e-03
    asset[3]  asset[4]  6.5594424822588331e-05
    asset[4]  asset[3]  6.5594424822588331e-05
    asset[3]  asset[5]  1.9308510826623479e-02
    asset[5]  asset[3]  1.9308510826623479e-02
    asset[3]  asset[6]  9.4001798447024970e-04
    asset[6]  asset[3]  9.4001798447024970e-04
    asset[3]  asset[7]  -4.6924156150666523e-03
    asset[7]  asset[3]  -4.6924156150666523e-03
    asset[3]  asset[8]  1.0127277044858917e-02
    asset[8]  asset[3]  1.0127277044858917e-02
    asset[3]  asset[9]  -7.8887808222903415e-03
    asset[9]  asset[3]  -7.8887808222903415e-03
    asset[4]  asset[4]  1.9867917274212520e-02
    asset[4]  asset[5]  -3.8356278123574169e-03
    asset[5]  asset[4]  -3.8356278123574169e-03
    asset[4]  asset[6]  -1.0986424534011257e-02
    asset[6]  asset[4]  -1.0986424534011257e-02
    asset[4]  asset[7]  -7.8463968231392463e-03
    asset[7]  asset[4]  -7.8463968231392463e-03
    asset[4]  asset[8]  5.3178739734223253e-03
    asset[8]  asset[4]  5.3178739734223253e-03
    asset[4]  asset[9]  3.8736179260437376e-05
    asset[9]  asset[4]  3.8736179260437376e-05
    asset[5]  asset[5]  1.6254341617706267e-01
    asset[5]  asset[6]  3.1588991082256157e-02
    asset[6]  asset[5]  3.1588991082256157e-02
    asset[5]  asset[7]  -1.6266084204436100e-02
    asset[7]  asset[5]  -1.6266084204436100e-02
    asset[5]  asset[8]  4.9299171571985614e-02
    asset[8]  asset[5]  4.9299171571985614e-02
    asset[5]  asset[9]  -8.2236109850610584e-02
    asset[9]  asset[5]  -8.2236109850610584e-02
    asset[6]  asset[6]  1.5923753435343142e-02
    asset[6]  asset[7]  6.7958373912789995e-03
    asset[7]  asset[6]  6.7958373912789995e-03
    asset[6]  asset[8]  -1.3913106457496649e-03
    asset[8]  asset[6]  -1.3913106457496649e-03
    asset[6]  asset[9]  -1.8873856071339509e-02
    asset[9]  asset[6]  -1.8873856071339509e-02
    asset[7]  asset[7]  2.6363696629177674e-02
    asset[7]  asset[8]  -2.1820643698445635e-02
    asset[8]  asset[7]  -2.1820643698445635e-02
    asset[7]  asset[9]  -1.4131557652466928e-03
    asset[9]  asset[7]  -1.4131557652466928e-03
    asset[8]  asset[8]  3.1465255478323892e-02
    asset[8]  asset[9]  -1.7211704158893712e-02
    asset[9]  asset[8]  -1.7211704158893712e-02
    asset[9]  asset[9]  4.7297692106899075e-02
QCMATRIX   fixed_risk
    asset[0]  asset[0]  5.5327207656902097e-03
    asset[1]  asset[1]  7.5550169456113803e-03
    asset[2]  asset[2]  1.6862921251094521e-03
    asset[3]  asset[3]  4.3052710580515814e-04
    asset[4]  asset[4]  1.9951911702064044e-03
    asset[5]  asset[5]  1.4532958606448394e-02
    asset[6]  asset[6]  1.7300841875433244e-03
    asset[7]  asset[7]  2.8267266065917277e-03
    asset[8]  asset[8]  2.9796193945687190e-03
    asset[9]  asset[9]  4.8271551774977826e-03
ENDATA
